
Gurobi 8.0.1 (linux64, Python) logging started Wed Nov 28 16:46:32 2018

Academic license - for non-commercial use only
Changed value of parameter TimeLimit to 300.0
   Prev: 1e+100  Min: 0.0  Max: 1e+100  Default: 1e+100
Changed value of parameter MIPFocus to 2
   Prev: 0  Min: 0  Max: 3  Default: 0
Optimize a model with 292 rows, 349 columns and 9096 nonzeros
Model has 3120 quadratic objective terms
Variable types: 1 continuous, 348 integer (336 binary)
Coefficient statistics:
  Matrix range     [1e+00, 4e+06]
  Objective range  [0e+00, 0e+00]
  QObjective range [1e-01, 5e+02]
  Bounds range     [1e+00, 1e+00]
  RHS range        [1e+00, 4e+06]
Presolve removed 0 rows and 13 columns
Presolve time: 0.02s
Presolved: 3412 rows, 3456 columns, 18456 nonzeros
Variable types: 0 continuous, 3456 integer (3444 binary)
Found heuristic solution: objective 437.5000000
Presolve removed 132 rows and 0 columns
Presolved: 3280 rows, 3588 columns, 14232 nonzeros


Root relaxation: objective 0.000000e+00, 297 iterations, 0.02 seconds

    Nodes    |    Current Node    |     Objective Bounds      |     Work
 Expl Unexpl |  Obj  Depth IntInf | Incumbent    BestBd   Gap | It/Node Time

     0     0    0.00000    0   29  437.50000    0.00000   100%     -    0s
H    0     0                     357.5500000    0.00000   100%     -    0s
H    0     0                     357.3500000    0.00000   100%     -    0s
     0     0    0.00000    0   50  357.35000    0.00000   100%     -    0s
H    0     0                     205.2500000    0.00000   100%     -    0s
     0     0    0.00000    0   45  205.25000    0.00000   100%     -    0s
     0     0    0.00000    0   41  205.25000    0.00000   100%     -    0s
     0     0    0.00000    0   43  205.25000    0.00000   100%     -    0s
H    0     0                     202.5500000    0.00000   100%     -    0s
H    0     0                     201.5500000    0.00000   100%     -    0s
     0     0    0.00000    0   38  201.55000    0.00000   100%     -    0s
     0     0    0.00000    0   38  201.55000    0.00000   100%     -    0s
     0     2    0.00000    0   38  201.55000    0.00000   100%     -    1s
H  343   262                     201.2500000    0.00000   100%  72.4    2s
H  350   262                     183.7000000    0.00000   100%  71.5    2s
   701   479   44.50000   43   28  183.70000    0.00000   100%  63.6    5s
  1060   684    0.05000   11   30  183.70000    0.05000   100%   5.7   10s
  3341  1020   27.50000   25   59  183.70000   25.00000  86.4%  53.7   15s
* 3842  1175              39     181.6500000   25.00000  86.2%  55.2   15s
* 5142  1254              39     178.4500000   79.00000  55.7%  59.2   18s
  6193  1186 infeasible   35       178.45000   99.50000  44.2%  59.3   20s
  8243   130     cutoff   26       178.45000  165.83750  7.07%  60.7   25s

Cutting planes:
  Gomory: 6
  Cover: 139
  Implied bound: 15
  MIR: 23
  Flow cover: 160
  Inf proof: 1
  Zero half: 112

Explored 8536 nodes (577489 simplex iterations) in 25.23 seconds
Thread count was 4 (of 4 available processors)

Solution count 10: 178.45 181.65 183.7 ... 437.5

Optimal solution found (tolerance 1.00e-04)
Best objective 1.784500000000e+02, best bound 1.784500000000e+02, gap 0.0000%

Solution quality statistics for model nasm :
  Maximum violation:
    Bound       : 0.00000000e+00
    Constraint  : 0.00000000e+00
    Integrality : 0.00000000e+00
	arc=('sdram', 'upsamp'),	v=910	hops=1.0	cost=910.0
	arc=('sdram', 'bab'),	v=32	hops=1.0	cost=32.0
	arc=('sdram', 'adsp'),	v=1	hops=2.0	cost=2.0
	arc=('medcpu', 'sdram'),	v=60	hops=2.0	cost=120.0
	arc=('medcpu', 'sram1'),	v=40	hops=2.0	cost=80.0
	arc=('sram2', 'upsamp'),	v=670	hops=1.0	cost=670.0
	arc=('sram2', 'idct'),	v=250	hops=1.0	cost=250.0
	arc=('sram2', 'bab'),	v=173	hops=1.0	cost=173.0
	arc=('sram2', 'risc'),	v=500	hops=1.0	cost=500.0
	arc=('rast', 'sdram'),	v=600	hops=1.0	cost=600.0
	arc=('rast', 'sram1'),	v=40	hops=1.0	cost=40.0
	arc=('au', 'sdram'),	v=1	hops=2.0	cost=2.0
	arc=('vu', 'sdram'),	v=190	hops=1.0	cost=190.0
Runtime = 25.2391080856	objVal = 178.45	cost_A = 3569.0	E_comm = 178.45	T = 0.0
